Normalized Data/p10_23_normalized_split0.vrp
NAME:p10_23_NORMALIZED_split
BEST_KNOWN: 0
COMMENT: 0
DIMENSION: 794
CAPACITY: 100
EDGE_WEIGHT_FORMAT: FUNCTION
EDGE_WEIGHT_TYPE: EXACT_2D
NODE_COORD_SECTION
1 0.00000 0.00000
2 0 -10
3 0 -10
4 0 -10
5 0 -10
6 0 -10
7 0 -10
8 -46 23
9 -46 23
10 -46 23
11 33 8
12 33 8
13 33 8
14 33 8
15 -42 -32
16 -42 -32
17 -42 -32
18 -42 -32
19 -13 32
20 -13 32
21 -13 32
22 -13 32
23 -13 32
24 -33 6
25 -33 6
26 -33 6
27 -33 6
28 41 16
29 41 16
30 41 16
31 41 16
32 41 16
33 41 16
34 29 30
35 29 30
36 29 30
37 29 30
38 29 30
39 29 30
40 46 -7
41 46 -7
42 46 -7
43 -9 -32
44 -9 -32
45 -9 -32
46 -9 -32
47 10 -44
48 10 -44
49 10 -44
50 26 16
51 26 16
52 -28 29
53 -28 29
54 -28 29
55 -28 29
56 30 28
57 30 28
58 30 28
59 30 28
60 30 28
61 30 28
62 32 37
63 32 37
64 32 37
65 32 37
66 32 37
67 32 37
68 -36 -39
69 -36 -39
70 -36 -39
71 -36 -39
72 -36 -39
73 -36 -39
74 38 -6
75 38 -6
76 38 -6
77 38 -6
78 -28 -30
79 -28 -30
80 -7 -5
81 -7 -5
82 -7 -5
83 45 30
84 45 30
85 45 30
86 -27 -30
87 -27 -30
88 -27 -30
89 -27 -30
90 5 -8
91 5 -8
92 5 -8
93 -10 45
94 -10 45
95 -28 -7
96 -28 -7
97 -28 -7
98 -28 -7
99 -28 -7
100 -28 -7
101 -9 -17
102 -9 -17
103 -9 -17
104 -9 -17
105 28 40
106 28 40
107 28 40
108 24 -40
109 24 -40
110 24 -40
111 24 -40
112 24 -40
113 -46 -41
114 -46 -41
115 -46 -41
116 -46 -41
117 -46 -41
118 -20 -1
119 -20 -1
120 -20 -1
121 3 38
122 3 38
123 7 -25
124 7 -25
125 -4 37
126 -4 37
127 -4 37
128 -4 37
129 -4 37
130 -7 43
131 -7 43
132 -7 43
133 -7 43
134 -7 43
135 -7 43
136 31 -34
137 31 -34
138 31 -34
139 -16 -11
140 -16 -11
141 -16 -11
142 24 4
143 24 4
144 24 4
145 24 4
146 24 4
147 42 47
148 42 47
149 42 47
150 48 33
151 48 33
152 48 33
153 48 33
154 48 33
155 48 33
156 -11 21
157 -11 21
158 -11 21
159 -11 21
160 -11 21
161 -11 21
162 43 28
163 43 28
164 -46 28
165 -46 28
166 -41 -42
167 -41 -42
168 -41 -42
169 -50 33
170 -50 33
171 -50 33
172 -50 33
173 -50 33
174 -28 -36
175 -28 -36
176 -28 -36
177 -28 -36
178 -28 -36
179 -28 -36
180 -13 46
181 -13 46
182 -13 46
183 -13 46
184 39 10
185 39 10
186 -15 10
187 -15 10
188 -15 10
189 -15 10
190 -15 10
191 -15 10
192 27 34
193 27 34
194 27 34
195 2 -8
196 2 -8
197 2 -8
198 2 -8
199 2 -8
200 -15 11
201 -15 11
202 -15 11
203 48 45
204 -47 11
205 -47 11
206 0 48
207 0 48
208 0 48
209 0 48
210 0 48
211 0 48
212 -49 34
213 -49 34
214 -36 8
215 -36 8
216 -36 8
217 -36 8
218 -36 8
219 -38 -9
220 -38 -9
221 -38 -9
222 -38 -9
223 20 40
224 20 40
225 20 40
226 20 40
227 20 40
228 20 40
229 47 -27
230 47 -27
231 -49 48
232 -49 48
233 -49 48
234 -49 48
235 45 -17
236 45 -17
237 45 -17
238 45 -17
239 45 -17
240 33 5
241 33 5
242 33 5
243 18 41
244 18 41
245 18 41
246 18 41
247 47 50
248 47 50
249 47 50
250 47 50
251 47 50
252 -46 5
253 -46 5
254 4 32
255 -12 -21
256 -12 -21
257 -13 -25
258 -13 -25
259 -13 -25
260 0 -43
261 0 -43
262 0 -43
263 0 -43
264 0 -43
265 24 -23
266 24 -23
267 24 -23
268 24 -23
269 24 -23
270 -49 10
271 -49 10
272 -49 10
273 -49 10
274 -49 10
275 -49 10
276 0 14
277 0 14
278 0 14
279 0 14
280 0 14
281 -6 -4
282 -6 -4
283 -6 -4
284 -6 -4
285 -6 -4
286 -27 -31
287 -27 -31
288 -20 -12
289 -20 -12
290 -20 -12
291 -20 -12
292 35 -46
293 35 -46
294 35 -46
295 -8 -7
296 -8 -7
297 50 36
298 50 36
299 50 36
300 50 36
301 35 10
302 35 10
303 35 10
304 35 10
305 35 10
306 35 10
307 -15 -42
308 -15 -42
309 -15 -42
310 -15 -42
311 16 17
312 16 17
313 16 17
314 13 -25
315 13 -25
316 13 -25
317 13 -25
318 48 -47
319 48 -47
320 48 -47
321 48 -47
322 48 -47
323 -1 -20
324 -1 -20
325 -1 -20
326 -1 -20
327 -1 -20
328 10 -38
329 10 -38
330 10 -38
331 10 -38
332 10 -38
333 -10 -4
334 43 7
335 43 7
336 41 -1
337 41 -1
338 41 -1
339 41 -1
340 41 -1
341 -48 18
342 -48 18
343 -48 18
344 40 1
345 40 1
346 40 1
347 40 1
348 40 1
349 40 1
350 5 9
351 5 9
352 5 9
353 5 9
354 39 -33
355 39 -33
356 39 -33
357 39 -33
358 39 -33
359 -4 41
360 -4 41
361 -4 41
362 -4 41
363 -4 41
364 -4 41
365 15 -33
366 15 -33
367 15 -33
368 15 -33
369 15 -33
370 5 -29
371 5 -29
372 -8 -22
373 -8 -22
374 -8 -22
375 -8 -22
376 -8 -22
377 10 -38
378 10 -38
379 10 -38
380 10 -38
381 10 -38
382 10 -38
383 -17 -41
384 -17 -41
385 -17 -41
386 -17 -41
387 18 -50
388 18 -50
389 18 -50
390 18 -50
391 18 -50
392 -36 17
393 -36 17
394 -36 17
395 -14 12
396 -14 12
397 -14 12
398 -14 12
399 -14 12
400 -14 12
401 -14 12
402 38 -37
403 38 -37
404 -47 34
405 -47 34
406 -47 34
407 -47 34
408 31 30
409 31 30
410 31 30
411 28 -40
412 28 -40
413 9 36
414 9 36
415 9 36
416 49 37
417 49 37
418 49 37
419 49 37
420 49 37
421 49 37
422 23 -35
423 23 -35
424 23 -35
425 23 -35
426 45 43
427 45 43
428 45 43
429 45 43
430 45 43
431 45 43
432 35 34
433 35 34
434 35 34
435 35 34
436 35 34
437 -43 31
438 -43 31
439 -43 31
440 -15 15
441 -15 15
442 -15 15
443 -15 15
444 -15 15
445 34 18
446 34 18
447 34 18
448 34 18
449 34 18
450 37 22
451 37 22
452 37 22
453 37 22
454 37 22
455 37 22
456 42 36
457 42 36
458 42 36
459 42 36
460 -4 -13
461 -4 -13
462 -4 -13
463 -4 -13
464 -4 -13
465 -2 -32
466 -2 -32
467 17 -29
468 17 -29
469 48 -44
470 48 -44
471 48 -44
472 48 -44
473 48 -44
474 21 -21
475 21 -21
476 21 -21
477 -14 -4
478 -14 -4
479 -14 -4
480 -14 -4
481 33 43
482 33 43
483 33 43
484 33 43
485 33 43
486 33 43
487 4 12
488 4 12
489 4 12
490 4 12
491 4 12
492 4 12
493 24 -36
494 24 -36
495 24 -36
496 24 -36
497 24 -36
498 -2 -42
499 -2 -42
500 -2 -42
501 -2 -42
502 -2 -42
503 -2 -42
504 -17 -10
505 -17 -10
506 -28 31
507 -28 31
508 -28 31
509 -28 31
510 -19 25
511 -19 25
512 -19 25
513 -19 25
514 36 -4
515 36 -4
516 36 -4
517 36 -4
518 36 -4
519 36 -4
520 47 -32
521 47 -32
522 47 -32
523 47 -32
524 47 -32
525 -43 -25
526 -43 -25
527 -43 -25
528 -43 -25
529 -43 -25
530 -43 -25
531 7 50
532 7 50
533 7 50
534 7 50
535 -47 30
536 -47 30
537 -47 30
538 23 -4
539 23 -4
540 39 -25
541 39 -25
542 39 -25
543 39 -25
544 39 -25
545 32 25
546 32 25
547 32 25
548 -31 -7
549 -31 -7
550 -31 -7
551 -31 -7
552 19 -38
553 14 -28
554 14 -28
555 14 -28
556 14 -28
557 15 -15
558 15 -15
559 15 -15
560 -6 15
561 -6 15
562 39 -31
563 39 -31
564 39 -31
565 39 -31
566 30 40
567 30 40
568 30 40
569 30 40
570 -4 -27
571 -4 -27
572 -4 -27
573 -4 -27
574 -4 -27
575 -4 -27
576 -18 18
577 -18 18
578 -18 18
579 -18 18
580 -18 18
581 24 9
582 24 9
583 24 9
584 24 9
585 24 9
586 -6 -6
587 -6 -6
588 -6 -6
589 -6 -6
590 -6 -6
591 -4 -24
592 -4 -24
593 -4 -24
594 -4 -24
595 -4 -24
596 -4 -24
597 18 34
598 18 34
599 18 34
600 18 34
601 41 -47
602 41 -47
603 41 -47
604 41 -47
605 41 -47
606 36 18
607 36 18
608 36 18
609 36 18
610 31 46
611 31 46
612 31 46
613 31 46
614 31 46
615 -22 41
616 -22 41
617 40 -35
618 40 -35
619 -21 -18
620 23 15
621 23 15
622 23 15
623 12 13
624 12 13
625 12 13
626 12 13
627 36 26
628 36 26
629 36 26
630 35 -38
631 35 -38
632 35 -38
633 35 -38
634 -43 -32
635 -43 -32
636 -43 -32
637 -43 -32
638 -43 -32
639 -43 -32
640 20 47
641 20 47
642 20 47
643 -20 33
644 -20 33
645 -20 33
646 -20 33
647 -20 33
648 -17 42
649 -17 42
650 -17 42
651 -17 42
652 -17 42
653 50 23
654 50 23
655 50 23
656 50 23
657 8 33
658 8 33
659 8 33
660 -41 0
661 -41 0
662 6 39
663 6 39
664 39 -34
665 39 -34
666 39 -34
667 39 -34
668 -23 38
669 -23 38
670 -23 38
671 27 -1
672 27 -1
673 27 -1
674 27 -1
675 27 -1
676 -27 2
677 -27 2
678 -27 2
679 -27 2
680 -16 47
681 -16 47
682 -16 47
683 -16 47
684 20 -46
685 20 -46
686 20 -46
687 44 -36
688 44 -36
689 -45 -3
690 -45 -3
691 -45 -3
692 -45 -3
693 -45 -3
694 -45 -3
695 9 -21
696 9 -21
697 -27 35
698 -27 35
699 -27 35
700 -27 35
701 -27 35
702 41 -4
703 -49 -17
704 -49 -17
705 -49 -17
706 -41 46
707 -41 46
708 -41 46
709 -41 46
710 19 -5
711 19 -5
712 19 -5
713 -23 19
714 -23 19
715 -23 19
716 -23 19
717 34 4
718 34 4
719 34 4
720 34 4
721 34 4
722 34 4
723 -19 -7
724 -19 -7
725 -19 -7
726 -19 -7
727 -19 -7
728 -19 -7
729 3 37
730 3 37
731 3 37
732 10 -23
733 10 -23
734 10 -23
735 10 -23
736 10 -23
737 10 -23
738 -26 -1
739 -26 -1
740 -26 -1
741 -47 -15
742 -47 -15
743 -47 -15
744 -47 -15
745 -47 -15
746 48 22
747 48 22
748 -7 -17
749 -7 -17
750 26 33
751 26 33
752 26 33
753 26 33
754 26 33
755 26 33
756 -17 -18
757 -17 -18
758 -17 -18
759 -17 -18
760 -17 -18
761 -17 -18
762 38 -6
763 38 -6
764 38 -6
765 3 12
766 3 12
767 3 12
768 3 12
769 3 12
770 -3 -5
771 -3 -5
772 -3 -5
773 -3 -5
774 -3 -5
775 -4 35
776 -4 35
777 -4 35
778 -4 35
779 -4 35
780 -4 35
781 -3 -13
782 -3 -13
783 -3 -13
784 -3 -13
785 -3 -13
786 -3 -13
787 -16 16
788 -16 16
789 -16 16
790 -8 47
791 -8 47
792 -8 47
793 29 23
794 29 23
DEMAND_SECTION
1 0
2 20
3 20
4 1
5 1
6 1
7 1
8 20
9 20
10 1
11 20
12 10
13 1
14 1
15 20
16 1
17 1
18 1
19 20
20 10
21 1
22 1
23 1
24 20
25 20
26 1
27 1
28 20
29 10
30 1
31 1
32 1
33 1
34 20
35 20
36 5
37 1
38 1
39 1
40 10
41 5
42 1
43 20
44 1
45 1
46 1
47 20
48 1
49 1
50 20
51 10
52 20
53 20
54 5
55 1
56 20
57 20
58 5
59 1
60 1
61 1
62 20
63 20
64 5
65 1
66 1
67 1
68 20
69 10
70 5
71 1
72 1
73 1
74 10
75 1
76 1
77 1
78 20
79 1
80 20
81 20
82 5
83 20
84 5
85 1
86 20
87 5
88 1
89 1
90 20
91 20
92 1
93 20
94 5
95 20
96 20
97 1
98 1
99 1
100 1
101 10
102 1
103 1
104 1
105 10
106 5
107 1
108 20
109 20
110 5
111 1
112 1
113 20
114 20
115 5
116 1
117 1
118 20
119 20
120 1
121 10
122 5
123 20
124 20
125 20
126 1
127 1
128 1
129 1
130 20
131 5
132 1
133 1
134 1
135 1
136 10
137 5
138 1
139 10
140 5
141 1
142 20
143 5
144 1
145 1
146 1
147 20
148 1
149 1
150 20
151 20
152 1
153 1
154 1
155 1
156 20
157 10
158 1
159 1
160 1
161 1
162 20
163 5
164 20
165 1
166 20
167 1
168 1
169 10
170 5
171 1
172 1
173 1
174 20
175 20
176 5
177 1
178 1
179 1
180 20
181 10
182 5
183 1
184 20
185 1
186 20
187 20
188 1
189 1
190 1
191 1
192 20
193 10
194 5
195 20
196 5
197 1
198 1
199 1
200 20
201 20
202 5
203 20
204 20
205 1
206 20
207 10
208 1
209 1
210 1
211 1
212 20
213 20
214 20
215 10
216 1
217 1
218 1
219 20
220 5
221 1
222 1
223 20
224 10
225 1
226 1
227 1
228 1
229 20
230 5
231 20
232 10
233 1
234 1
235 10
236 5
237 1
238 1
239 1
240 20
241 20
242 1
243 20
244 10
245 1
246 1
247 10
248 1
249 1
250 1
251 1
252 10
253 5
254 20
255 20
256 10
257 20
258 1
259 1
260 20
261 20
262 5
263 1
264 1
265 20
266 10
267 1
268 1
269 1
270 20
271 5
272 1
273 1
274 1
275 1
276 20
277 5
278 1
279 1
280 1
281 20
282 20
283 5
284 1
285 1
286 20
287 5
288 20
289 20
290 1
291 1
292 20
293 1
294 1
295 20
296 20
297 20
298 1
299 1
300 1
301 20
302 20
303 1
304 1
305 1
306 1
307 20
308 5
309 1
310 1
311 20
312 20
313 1
314 20
315 20
316 1
317 1
318 10
319 5
320 1
321 1
322 1
323 10
324 5
325 1
326 1
327 1
328 10
329 5
330 1
331 1
332 1
333 20
334 20
335 1
336 10
337 1
338 1
339 1
340 1
341 20
342 5
343 1
344 20
345 10
346 5
347 1
348 1
349 1
350 10
351 5
352 1
353 1
354 20
355 20
356 5
357 1
358 1
359 20
360 10
361 5
362 1
363 1
364 1
365 20
366 20
367 5
368 1
369 1
370 20
371 10
372 20
373 1
374 1
375 1
376 1
377 20
378 10
379 1
380 1
381 1
382 1
383 20
384 1
385 1
386 1
387 20
388 10
389 1
390 1
391 1
392 20
393 1
394 1
395 20
396 10
397 5
398 1
399 1
400 1
401 1
402 20
403 1
404 20
405 10
406 5
407 1
408 20
409 20
410 5
411 10
412 5
413 20
414 20
415 10
416 20
417 10
418 5
419 1
420 1
421 1
422 20
423 10
424 1
425 1
426 20
427 5
428 1
429 1
430 1
431 1
432 20
433 10
434 5
435 1
436 1
437 20
438 5
439 1
440 10
441 1
442 1
443 1
444 1
445 20
446 20
447 5
448 1
449 1
450 20
451 5
452 1
453 1
454 1
455 1
456 10
457 5
458 1
459 1
460 20
461 1
462 1
463 1
464 1
465 10
466 5
467 20
468 10
469 10
470 5
471 1
472 1
473 1
474 20
475 20
476 1
477 20
478 20
479 1
480 1
481 10
482 5
483 1
484 1
485 1
486 1
487 20
488 5
489 1
490 1
491 1
492 1
493 20
494 10
495 5
496 1
497 1
498 20
499 10
500 5
501 1
502 1
503 1
504 20
505 1
506 20
507 1
508 1
509 1
510 10
511 5
512 1
513 1
514 20
515 5
516 1
517 1
518 1
519 1
520 20
521 10
522 5
523 1
524 1
525 20
526 10
527 5
528 1
529 1
530 1
531 20
532 10
533 1
534 1
535 20
536 10
537 5
538 10
539 5
540 10
541 1
542 1
543 1
544 1
545 20
546 20
547 10
548 20
549 5
550 1
551 1
552 20
553 20
554 20
555 5
556 1
557 20
558 5
559 1
560 10
561 5
562 10
563 5
564 1
565 1
566 20
567 10
568 5
569 1
570 20
571 5
572 1
573 1
574 1
575 1
576 20
577 10
578 5
579 1
580 1
581 20
582 10
583 5
584 1
585 1
586 20
587 10
588 1
589 1
590 1
591 20
592 5
593 1
594 1
595 1
596 1
597 20
598 10
599 5
600 1
601 10
602 1
603 1
604 1
605 1
606 20
607 10
608 5
609 1
610 20
611 5
612 1
613 1
614 1
615 20
616 10
617 20
618 5
619 20
620 20
621 20
622 5
623 10
624 5
625 1
626 1
627 20
628 20
629 10
630 20
631 10
632 1
633 1
634 20
635 10
636 5
637 1
638 1
639 1
640 20
641 10
642 1
643 20
644 5
645 1
646 1
647 1
648 20
649 5
650 1
651 1
652 1
653 20
654 10
655 5
656 1
657 20
658 20
659 5
660 20
661 5
662 20
663 5
664 20
665 10
666 1
667 1
668 20
669 20
670 1
671 10
672 5
673 1
674 1
675 1
676 10
677 1
678 1
679 1
680 20
681 10
682 1
683 1
684 20
685 1
686 1
687 20
688 5
689 20
690 10
691 5
692 1
693 1
694 1
695 20
696 20
697 10
698 5
699 1
700 1
701 1
702 20
703 20
704 20
705 1
706 20
707 5
708 1
709 1
710 20
711 1
712 1
713 20
714 20
715 1
716 1
717 10
718 5
719 1
720 1
721 1
722 1
723 20
724 10
725 1
726 1
727 1
728 1
729 20
730 10
731 5
732 10
733 5
734 1
735 1
736 1
737 1
738 20
739 10
740 5
741 10
742 1
743 1
744 1
745 1
746 20
747 20
748 20
749 10
750 20
751 10
752 1
753 1
754 1
755 1
756 20
757 10
758 5
759 1
760 1
761 1
762 20
763 5
764 1
765 20
766 5
767 1
768 1
769 1
770 20
771 1
772 1
773 1
774 1
775 20
776 20
777 1
778 1
779 1
780 1
781 20
782 20
783 1
784 1
785 1
786 1
787 10
788 5
789 1
790 20
791 20
792 1
793 10
794 5
DEPOT_SECTION
1
-1
EOF