Normalized Data/p10_23_normalized_split0.sol
793 -2 1 194 89 90 -6 4 3 5 122 123 695 694 198 195 197 196 -7 9 8 163 164 536 535 534 -12 13 11 10 240 241 239 718 721 717 719 720 716 143 142 144 145 -22 20 650 647 649 648 651 679 681 680 682 181 180 179 182 -23 26 24 25 216 215 214 217 213 391 392 393 -27 32 31 30 608 605 606 607 444 447 445 -29 28 745 746 652 653 655 654 450 454 451 448 446 -36 38 37 34 33 35 192 191 749 754 753 -41 39 40 234 238 235 237 236 229 228 522 521 520 523 519 542 540 -42 45 44 43 306 308 309 307 382 384 385 383 258 257 256 101 103 102 770 771 -60 58 59 409 431 435 434 432 433 62 63 66 65 64 61 193 -71 72 70 68 67 634 636 633 635 637 638 16 14 17 15 81 -78 77 69 167 165 166 112 115 113 116 114 -79 80 294 295 332 -84 82 298 297 296 299 420 418 415 416 419 417 456 457 458 455 -85 87 88 86 286 285 173 174 175 178 177 176 -91 109 108 107 111 110 411 410 496 495 492 494 493 -93 92 791 790 789 133 134 130 129 131 132 125 126 127 778 776 -96 98 95 97 99 94 550 547 738 739 737 -106 104 105 611 612 613 609 610 481 484 483 482 480 485 565 567 568 566 -117 119 118 723 727 722 726 478 477 479 -135 136 137 632 630 631 629 401 402 353 357 355 562 -141 581 580 50 49 620 -150 152 153 151 154 149 83 162 161 452 453 449 -159 614 615 669 668 667 643 642 644 646 645 -171 169 172 170 168 211 212 404 405 406 403 438 437 -189 185 187 186 188 190 199 200 201 395 -226 225 641 639 640 530 531 533 532 206 208 209 207 210 205 779 -243 242 245 244 227 222 224 223 597 596 598 599 -253 661 662 121 120 730 728 729 -259 263 261 260 262 500 499 497 502 498 501 465 464 -265 267 264 266 268 473 474 475 556 557 558 -276 279 277 278 275 765 767 768 766 764 486 487 490 491 489 488 -282 284 281 280 586 588 587 589 585 772 769 -283 139 140 138 288 290 289 287 503 504 476 -292 293 291 603 601 604 600 602 320 319 318 321 317 472 469 468 470 471 686 687 665 666 -316 314 313 315 554 552 555 467 466 -326 323 322 325 324 590 591 592 595 594 593 574 569 571 573 572 570 371 375 374 372 373 -334 333 184 183 303 305 304 301 300 302 582 584 583 -342 341 340 203 204 269 273 271 272 270 274 251 252 660 677 676 -351 352 350 349 625 623 624 622 311 310 312 621 619 -363 360 358 359 361 362 128 124 774 777 775 -369 370 377 327 376 328 379 330 381 378 331 329 733 731 735 734 732 736 -380 48 46 47 388 386 390 389 387 684 685 683 551 -394 715 713 712 714 577 575 578 576 579 441 -398 397 400 396 399 443 788 786 19 18 21 160 158 155 157 156 560 559 -408 407 56 55 57 792 793 -412 413 414 658 657 656 -421 424 423 422 367 365 368 364 366 553 -429 428 425 427 430 426 202 250 246 249 247 248 148 146 147 750 752 751 -436 233 231 232 230 708 707 705 706 700 697 696 699 698 511 440 442 -439 787 51 53 52 54 505 508 507 506 509 512 510 -463 460 459 461 462 748 747 783 785 780 782 781 784 -513 701 337 336 339 335 338 347 345 346 343 344 348 672 671 -528 529 525 526 524 527 703 704 702 744 741 740 742 743 220 221 725 724 -539 541 543 561 563 564 354 356 616 617 664 663 -546 545 544 626 628 627 -549 548 219 218 692 693 688 689 691 690 659 675 678 -618 757 759 760 758 756 755 254 255 100 773 -674 673 670 514 516 517 515 518 73 762 761 76 763 75 74 538 537 710 711 709 0 





OBJ=
5291.380
BEST_KNOWN=
0.000